&FORCE_EVAL
  METHOD Quickstep
  &DFT
    BASIS_SET_FILE_NAME BASIS_MOLOPT_UZH
    POTENTIAL_FILE_NAME POTENTIAL_UZH
    CHARGE 0
    MULTIPLICITY 1
    &MGRID
       CUTOFF [Ry] 400
    &END
    &XC
      &XC_FUNCTIONAL
         &PBE
         &END
      &END XC_FUNCTIONAL
      ! adding Grimme's D3 correction (by default without C9 terms)
      &VDW_POTENTIAL
         POTENTIAL_TYPE PAIR_POTENTIAL
         &PAIR_POTENTIAL
            PARAMETER_FILE_NAME dftd3.dat
            TYPE DFTD3
            REFERENCE_FUNCTIONAL PBE
            R_CUTOFF [angstrom] 16
         &END
      &END VDW_POTENTIAL
    &END XC
    &QS
       METHOD GPW
       EPS_DEFAULT 1.0E-10
       EXTRAPOLATION ASPC
    &END
    &POISSON
       PERIODIC XYZ ! the default, gas phase systems should have 'NONE' and a wavelet solver
       POISSON_SOLVER PERIODIC
    &END
    ! use the OT METHOD for robust and efficient SCF, suitable for all non-metallic systems.
    &SCF
      SCF_GUESS ATOMIC ! can be used to RESTART an interrupted calculation
      MAX_SCF 10
      EPS_SCF 1.0E-6 ! accuracy of the SCF procedure typically 1.0E-6 - 1.0E-7
      &OT
        ! an accurate preconditioner suitable also for larger systems
        PRECONDITIONER FULL_ALL
	ENERGY_GAP 0.001
        MINIMIZER DIIS
      &END OT
      &OUTER_SCF ! repeat the inner SCF cycle 10 times
        MAX_SCF 200
        EPS_SCF 1.0E-6 ! must match the above
      &END
      &PRINT
        &RESTART OFF
        &END
      &END PRINT
    IGNORE_CONVERGENCE_FAILURE TRUE
    &END SCF
  &END DFT
  &SUBSYS
    @CELL@
    ! atom coordinates can be in the &COORD section,
    ! or provided as an external file.
    &TOPOLOGY
      COORD_FILE_NAME structure.xyz
      COORD_FILE_FORMAT XYZ
    &END
    &KIND O
      BASIS_SET ORB DZVP-MOLOPT-PBE-GTH-q6
      POTENTIAL GTH-PBE-q6
    &END KIND
    &KIND C
      BASIS_SET ORB DZVP-MOLOPT-PBE-GTH-q4
      POTENTIAL GTH-PBE-q4
    &END KIND
    &KIND Si
      BASIS_SET ORB DZVP-MOLOPT-PBE-GTH-q4
      POTENTIAL GTH-PBE-q4
    &END KIND
    &KIND H
      BASIS_SET ORB DZVP-MOLOPT-PBE-GTH-q1
      POTENTIAL GTH-PBE-q1
    &END KIND
    &KIND N
      BASIS_SET ORB DZVP-MOLOPT-PBE-GTH-q5
      POTENTIAL GTH-PBE-q5
    &END KIND
  &END SUBSYS
  &PRINT
    &FORCES ON
    &END FORCES
  &END PRINT
&END FORCE_EVAL
